(set-option :produce-models true)
(set-logic QF_UF)
(declare-fun p3() Bool)
(declare-fun p12() Bool)
(declare-fun p33() Bool)
(declare-fun p22() Bool)
(declare-fun p5() Bool)
(declare-fun p7() Bool)
(declare-fun p24() Bool)
(declare-fun p23() Bool)
(declare-fun p0() Bool)
(declare-fun p34() Bool)
(declare-fun p49() Bool)
(declare-fun p2() Bool)
(declare-fun p38() Bool)
(declare-fun p8() Bool)
(declare-fun p19() Bool)
(declare-fun p43() Bool)
(declare-fun p47() Bool)
(declare-fun p15() Bool)
(declare-fun p41() Bool)
(declare-fun p42() Bool)
(declare-fun p1() Bool)
(declare-fun p28() Bool)
(declare-fun p20() Bool)
(declare-fun p10() Bool)
(declare-fun p45() Bool)
(declare-fun p37() Bool)
(declare-fun p39() Bool)
(declare-fun p18() Bool)
(declare-fun p31() Bool)
(declare-fun p26() Bool)
(declare-fun p21() Bool)
(declare-fun p27() Bool)
(declare-fun p29() Bool)
(declare-fun p44() Bool)
(declare-fun p11() Bool)
(declare-fun p40() Bool)
(declare-fun p14() Bool)
(declare-fun p9() Bool)
(declare-fun p30() Bool)
(declare-fun p4() Bool)
(declare-fun p17() Bool)
(declare-fun p25() Bool)
(declare-fun p36() Bool)
(declare-fun p48() Bool)
(declare-fun p46() Bool)
(declare-fun p6() Bool)
(declare-fun p32() Bool)
(declare-fun p35() Bool)
(declare-fun p13() Bool)
(declare-fun p16() Bool)
(assert
(and (or (not p3) (not p12) (not p33)) (or p22 p5 p7) (or p24 (not p23) (not p0)) (or p34 p49 p2) (or (not p38) (not p8) p12) (or (not p19) (not p2) (not p43)) (or p47 p15 (not p41)) (or p47 p49 (not p42)) (or (not p1) p28 (not p20)) (or p10 p45 (not p3)) (or p37 (not p34) (not p39)) (or (not p7) p7 p18) (or p31 p18 p28) (or p26 p3 p31) (or (not p21) (not p15) (not p20)) (or (not p27) (not p1) p29) (or (not p44) (not p37) p23) (or (not p7) p29 (not p26)) (or (not p33) p11 (not p10)) (or (not p20) (not p40) p14) (or (not p41) p9 (not p30)) (or p4 (not p0) (not p34)) (or (not p4) p15 p3) (or p17 p23 p39) (or p25 (not p28) (not p3)) (or p34 (not p3) (not p36)) (or (not p9) (not p34) (not p48)) (or (not p4) p46 (not p33)) (or p22 p38 p8) (or (not p43) p49 (not p19)) (or (not p45) p37 p7) (or (not p38) p31 (not p5)) (or p19 (not p28) p27) (or p20 p10 (not p25)) (or p5 (not p4) (not p2)) (or p48 (not p28) p12) (or (not p3) p3 p3) (or p6 (not p25) p9) (or p32 (not p25) p42) (or p8 (not p27) (not p0)) (or p11 (not p45) p46) (or p28 p40 (not p18)) (or (not p36) (not p34) p31) (or (not p3) (not p15) p26) (or p24 (not p20) p36) (or (not p49) p3 p9) (or (not p8) p18 p29) (or (not p1) (not p34) p5) (or p3 p19 (not p24)) (or p29 p6 (not p40)) (or p35 (not p28) (not p36)) (or p46 (not p4) p11) (or p31 (not p1) (not p31)) (or (not p21) p41 (not p32)) (or p5 p6 (not p0)) (or (not p17) p33 p43) (or p8 p22 (not p23)) (or p37 p24 p26) (or p25 (not p46) p18) (or p29 p5 (not p18)) (or (not p29) p1 (not p29)) (or p21 (not p10) p39) (or p49 (not p13) (not p29)) (or (not p11) (not p9) (not p30)) (or p22 p29 p27) (or (not p37) (not p34) p24) (or (not p13) p9 p10) (or (not p37) (not p7) p18) (or p30 (not p14) p19) (or p39 p15 p7) (or p26 (not p20) (not p12)) (or (not p0) p26 (not p25)) (or p40 (not p2) p46) (or p30 p24 (not p27)) (or (not p15) (not p26) (not p46)) (or p14 p5 (not p4)) (or p16 (not p42) (not p7)) (or p43 (not p32) p24) (or p7 p25 (not p12)) (or p23 p18 (not p2)) (or p44 p44 p28) (or p22 (not p36) (not p17)) (or (not p20) p38 p17) (or (not p33) (not p26) p45) (or p14 p31 (not p2)) (or p32 p40 p3) (or p45 (not p14) (not p25)) (or p0 (not p34) (not p28)) (or p35 p21 (not p1)) (or (not p31) (not p27) (not p28)) (or p19 p33 p44) (or (not p18) p19 p23) (or (not p11) (not p2) p2) (or (not p6) (not p37) p11) (or p36 p40 (not p26)) (or (not p45) p33 (not p14)) (or (not p17) p33 (not p41)) (or p40 p29 (not p33)) (or (not p21) p41 p35) (or p32 p6 p2) (or p37 p2 p2) (or p46 p39 (not p20)) (or (not p28) p18 p26) (or p6 (not p13) (not p7)) (or p28 (not p37) p9) (or (not p14) (not p28) p48) (or p22 (not p40) (not p43)) (or p24 (not p29) (not p25)) (or (not p13) p36 p46) (or (not p38) p35 (not p7)) (or (not p31) p49 (not p13)) (or (not p10) p17 p1) (or p30 p9 (not p48)) (or (not p21) p42 (not p33)) (or (not p21) p47 p5) (or p15 p49 p37) (or (not p17) (not p33) (not p43)) (or (not p14) (not p9) p49) (or (not p13) (not p42) p7) (or p39 p15 p4) (or (not p14) (not p26) (not p11)) (or p0 p27 (not p7)) (or p39 (not p19) p36) (or p1 (not p6) (not p48)) (or p27 (not p22) (not p48)) (or (not p6) p2 p10) (or (not p14) (not p26) p3) (or p1 (not p22) p34) (or (not p8) (not p12) (not p8)) (or (not p7) p10 p49) (or (not p25) (not p38) (not p34)) (or (not p15) (not p29) (not p9)) (or p47 p7 p0) (or (not p13) p22 p41) (or p40 (not p28) (not p46)) (or (not p37) p0 p20) (or (not p41) p34 p44) (or p21 (not p22) p14) (or (not p47) p30 (not p45)) (or (not p4) (not p33) (not p14)) (or (not p18) p2 (not p42)) (or (not p30) (not p7) (not p42)) (or p1 (not p35) (not p49)) (or (not p35) (not p0) (not p13)) (or p22 (not p26) (not p41)) (or (not p35) (not p0) p3) (or (not p35) p12 (not p18)) (or p30 p3 (not p45)) (or p41 (not p21) p47) (or p40 p20 p10) (or p46 p23 p35) (or (not p46) (not p37) p5) (or p2 (not p3) p24) (or p38 (not p45) (not p10)) (or p32 p40 (not p42)) (or p18 p36 p4) (or (not p36) p47 (not p49)) (or (not p45) (not p33) (not p2)) (or (not p21) (not p20) (not p35)) (or (not p45) p25 p42) (or (not p25) (not p16) (not p20)) (or p8 (not p20) (not p33)) (or p36 p39 (not p9)) (or p22 p11 p47) (or (not p46) p31 (not p20)) (or p20 (not p33) p15) (or (not p18) p19 (not p29)) (or (not p26) p14 p24) (or (not p23) p39 p26) (or (not p17) p25 (not p30)) (or (not p3) (not p12) p35) (or p17 (not p45) p17) (or (not p25) (not p45) (not p15)) (or (not p29) p24 (not p37)) (or p39 (not p32) (not p40)) (or (not p39) p42 p3) (or p32 (not p16) (not p34)) (or (not p40) (not p9) p16) (or (not p13) (not p33) p0) (or p40 p16 p5) (or p35 p42 p14) (or (not p5) p41 p13) (or p28 p15 (not p21)) (or p12 p26 p4) (or (not p29) (not p1) (not p28)) (or p2 (not p33) (not p19)) (or (not p44) (not p14) p25) (or p37 (not p47) (not p20)) (or p40 (not p15) p30) (or (not p41) (not p0) p41) (or p21 p22 p16) (or p32 (not p26) p5) (or (not p32) (not p48) p28) (or (not p16) p35 (not p23)) (or p0 p14 p28) (or p5 p45 p13) (or p49 p3 (not p18)) (or p27 (not p36) (not p33)) (or (not p14) p28 p35) (or (not p32) (not p40) p22) (or (not p39) p33 (not p0)) (or (not p32) (not p36) (not p27)) (or p1 (not p46) p33) (or (not p27) p24 (not p15)) (or (not p33) p26 p0) (or (not p37) p30 (not p28)) (or p14 (not p41) p12) (or (not p1) (not p13) (not p40)) (or (not p4) (not p41) (not p47)) (or (not p12) p32 (not p17)))
)
(check-sat)
(get-model)
